(declare-const a Real)
(declare-const b Real)
(declare-const c Real)
(assert (= (+ a b c) 3))
(assert (> a 0))
(assert (> b 0))
(assert (> c 0))
(assert (not (<= (+ (* -3750 (pow a 6)) (* -3750 (pow b 6)) (* -3750 (pow c 6)) (* (pow (+ (* 67 a (pow (+ (* 2 c) (* 3 b)) 5)) (* 209375 a (pow c 3))) -1) (pow (+ (* 67 a (pow (+ (* 2 c) (* 3 b)) 5)) (* 209375 a b (pow c 3))) 2)) (* -123750 (pow a 3) (pow b 3)) (* -123750 (pow a 3) (pow c 3)) (* -123750 (pow b 3) (pow c 3)) (* -26875 (pow a 2) (pow b 4)) (* -26875 (pow a 2) (pow c 4)) (* -26875 (pow a 4) (pow b 2)) (* -26875 (pow a 4) (pow c 2)) (* -26875 (pow b 2) (pow c 4)) (* -26875 (pow b 4) (pow c 2)) (* -8125 a (pow b 5)) (* -8125 a (pow c 5)) (* -8125 b (pow a 5)) (* -8125 b (pow c 5)) (* -8125 c (pow a 5)) (* -8125 c (pow b 5)) (* -663750 (pow a 2) (pow b 2) (pow c 2)) (* 209375 b (pow a 2) (pow c 3)) (* 209375 b (pow a 3) (pow c 2)) (* 209375 c (pow a 2) (pow b 3)) (* 209375 c (pow a 3) (pow b 2))) 0)))
(check-sat)
(get-model)
(exit)